; DUP3 SWAP3 => DUP3
(set-option :produce-proofs true)
; 
(set-info :status unknown)
(declare-fun storage_t ((_ BitVec 256) (_ BitVec 256) (_ BitVec 256) Int (_ BitVec 256)) (_ BitVec 256))
(declare-fun storage_s ((_ BitVec 256) (_ BitVec 256) (_ BitVec 256) Int (_ BitVec 256)) (_ BitVec 256))
(declare-fun exc_halt_t (Int) Bool)
(declare-fun exc_halt_s (Int) Bool)
(declare-fun stack_t ((_ BitVec 256) (_ BitVec 256) (_ BitVec 256) Int (_ BitVec 6)) (_ BitVec 256))
(declare-fun stack_s ((_ BitVec 256) (_ BitVec 256) (_ BitVec 256) Int (_ BitVec 6)) (_ BitVec 256))
(declare-fun sc_t (Int) (_ BitVec 6))
(declare-fun sc_s (Int) (_ BitVec 6))
(declare-fun used_gas_t ((_ BitVec 256) (_ BitVec 256) (_ BitVec 256) Int) Int)
(declare-fun used_gas_s ((_ BitVec 256) (_ BitVec 256) (_ BitVec 256) Int) Int)
(assert
 (exists ((x_0 (_ BitVec 256)) (x_1 (_ BitVec 256)) (x_2 (_ BitVec 256)) )(let (($x8806 (forall ((w (_ BitVec 256)) )(let ((?x2156 (storage_t x_0 x_1 x_2 1 w)))
 (let ((?x2283 (storage_s x_0 x_1 x_2 2 w)))
 (= ?x2283 ?x2156))))
 ))
 (let (($x1920 (exc_halt_t 1)))
 (let (($x247 (exc_halt_s 2)))
 (let (($x8665 (= $x247 $x1920)))
 (let (($x8925 (forall ((n (_ BitVec 6)) )(let ((?x2148 (stack_t x_0 x_1 x_2 1 n)))
 (let ((?x2287 (stack_s x_0 x_1 x_2 2 n)))
 (let (($x8808 (= ?x2287 ?x2148)))
 (let ((?x4023 (sc_t 1)))
 (let (($x3393 (bvsle ?x4023 n)))
 (or $x3393 $x8808)))))))
 ))
 (let ((?x4023 (sc_t 1)))
 (let ((?x218 (sc_s 2)))
 (let (($x8685 (= ?x218 ?x4023)))
 (let ((?x494 (used_gas_t x_0 x_1 x_2 0)))
 (let ((?x2504 (used_gas_s x_0 x_1 x_2 0)))
 (let (($x2505 (= ?x2504 ?x494)))
 (let (($x2502 (forall ((w (_ BitVec 256)) )(let ((?x3103 (storage_t x_0 x_1 x_2 0 w)))
 (let ((?x2500 (storage_s x_0 x_1 x_2 0 w)))
 (= ?x2500 ?x3103))))
 ))
 (let (($x56 (exc_halt_t 0)))
 (let (($x57 (exc_halt_s 0)))
 (let (($x58 (= $x57 $x56)))
 (let (($x2164 (forall ((n (_ BitVec 6)) )(let ((?x63 (sc_t 0)))
 (let (($x3470 (bvsle ?x63 n)))
 (let ((?x473 (stack_t x_0 x_1 x_2 0 n)))
 (let ((?x474 (stack_s x_0 x_1 x_2 0 n)))
 (let (($x476 (= ?x474 ?x473)))
 (or $x476 $x3470)))))))
 ))
 (let ((?x63 (sc_t 0)))
 (let ((?x72 (sc_s 0)))
 (let (($x73 (= ?x72 ?x63)))
 (let (($x3418 (not (= ((_ extract 6 6) (bvadd (_ bv1 7) (concat (_ bv0 1) ?x63))) (_ bv0 1)))))
 (let (($x2982 (forall ((w (_ BitVec 256)) )(let ((?x3103 (storage_t x_0 x_1 x_2 0 w)))
 (let ((?x2156 (storage_t x_0 x_1 x_2 1 w)))
 (= ?x2156 ?x3103))))
 ))
 (let (($x8917 (forall ((n (_ BitVec 6)) )(let ((?x473 (stack_t x_0 x_1 x_2 0 n)))
 (let ((?x2148 (stack_t x_0 x_1 x_2 1 n)))
 (let (($x2995 (= ?x2148 ?x473)))
 (or $x2995 (bvsle (bvadd (_ bv61 6) (sc_t 0)) n))))))
 ))
 (let (($x3469 (= ?x4023 (bvadd (_ bv1 6) ?x63))))
 (let ((?x2133 (used_gas_t x_0 x_1 x_2 1)))
 (let (($x3009 (= ?x2133 (+ 3 ?x494))))
 (let ((?x3016 (bvadd (_ bv63 6) ?x63)))
 (let ((?x3018 (stack_t x_0 x_1 x_2 0 ?x3016)))
 (let ((?x1878 (bvadd (_ bv62 6) ?x63)))
 (let ((?x2362 (stack_t x_0 x_1 x_2 0 ?x1878)))
 (let ((?x8903 (bvadd (_ bv61 6) ?x63)))
 (let ((?x8904 (stack_t x_0 x_1 x_2 0 ?x8903)))
 (let (($x8900 (= $x247 (or (exc_halt_s 1) (not (bvsle (_ bv0 6) (bvadd (_ bv60 6) (sc_s 1))))))))
 (let (($x3074 (forall ((w (_ BitVec 256)) )(let ((?x2308 (storage_s x_0 x_1 x_2 1 w)))
 (let ((?x2283 (storage_s x_0 x_1 x_2 2 w)))
 (= ?x2283 ?x2308))))
 ))
 (let (($x8897 (forall ((n (_ BitVec 6)) )(let ((?x2955 (stack_s x_0 x_1 x_2 1 n)))
 (let ((?x2287 (stack_s x_0 x_1 x_2 2 n)))
 (let (($x2434 (= ?x2287 ?x2955)))
 (or $x2434 (bvsle (bvadd (_ bv60 6) (sc_s 1)) n))))))
 ))
 (let ((?x154 (sc_s 1)))
 (let (($x3567 (= ?x218 ?x154)))
 (let ((?x2936 (used_gas_s x_0 x_1 x_2 2)))
 (let (($x3071 (= ?x2936 (+ 3 (used_gas_s x_0 x_1 x_2 1)))))
 (let ((?x3520 (bvadd (_ bv62 6) ?x154)))
 (let ((?x7890 (stack_s x_0 x_1 x_2 1 ?x3520)))
 (let ((?x3565 (bvadd (_ bv62 6) ?x218)))
 (let ((?x3085 (stack_s x_0 x_1 x_2 2 ?x3565)))
 (let (($x7901 (= ?x3085 ?x7890)))
 (let ((?x3513 (bvadd (_ bv61 6) ?x154)))
 (let ((?x7885 (stack_s x_0 x_1 x_2 1 ?x3513)))
 (let ((?x2457 (bvadd (_ bv61 6) ?x218)))
 (let ((?x2456 (stack_s x_0 x_1 x_2 2 ?x2457)))
 (let ((?x3496 (bvadd (_ bv63 6) ?x154)))
 (let ((?x3043 (stack_s x_0 x_1 x_2 1 ?x3496)))
 (let ((?x3560 (bvadd (_ bv63 6) ?x218)))
 (let ((?x2414 (stack_s x_0 x_1 x_2 2 ?x3560)))
 (let (($x3556 (not (bvsle (_ bv0 6) (bvadd (_ bv61 6) ?x72)))))
 (let (($x3066 (not (= ((_ extract 6 6) (bvadd (_ bv1 7) (concat (_ bv0 1) ?x72))) (_ bv0 1)))))
 (let (($x189 (exc_halt_s 1)))
 (let (($x3056 (forall ((w (_ BitVec 256)) )(let ((?x2500 (storage_s x_0 x_1 x_2 0 w)))
 (let ((?x2308 (storage_s x_0 x_1 x_2 1 w)))
 (= ?x2308 ?x2500))))
 ))
 (let (($x7896 (forall ((n (_ BitVec 6)) )(let ((?x72 (sc_s 0)))
 (let ((?x3509 (bvadd (_ bv61 6) ?x72)))
 (let (($x3553 (bvsle ?x3509 n)))
 (let ((?x474 (stack_s x_0 x_1 x_2 0 n)))
 (let ((?x2955 (stack_s x_0 x_1 x_2 1 n)))
 (let (($x2384 (= ?x2955 ?x474)))
 (or $x2384 $x3553))))))))
 ))
 (let (($x2381 (= ?x154 (bvadd (_ bv1 6) ?x72))))
 (let ((?x2959 (used_gas_s x_0 x_1 x_2 1)))
 (let (($x3055 (= ?x2959 (+ 3 ?x2504))))
 (let ((?x3522 (bvadd (_ bv63 6) ?x72)))
 (let ((?x3045 (stack_s x_0 x_1 x_2 0 ?x3522)))
 (let (($x2396 (= (stack_s x_0 x_1 x_2 1 ?x3522) ?x3045)))
 (let ((?x3525 (bvadd (_ bv62 6) ?x72)))
 (let ((?x7892 (stack_s x_0 x_1 x_2 0 ?x3525)))
 (let ((?x3509 (bvadd (_ bv61 6) ?x72)))
 (let ((?x7882 (stack_s x_0 x_1 x_2 0 ?x3509)))
 (let (($x7883 (= ?x3043 ?x7882)))
 (let (($x3024 (forall ((w (_ BitVec 256)) )(let ((?x2500 (storage_s x_0 x_1 x_2 0 w)))
 (= ?x2500 (_ bv0 256))))
 ))
 (let (($x3011 (= ?x2504 0)))
 (let (($x3503 (not $x57)))
 (let (($x7868 (= (stack_s x_0 x_1 x_2 0 (_ bv2 6)) x_2)))
 (let (($x3025 (= (stack_s x_0 x_1 x_2 0 (_ bv1 6)) x_1)))
 (let (($x3027 (= (stack_s x_0 x_1 x_2 0 (_ bv0 6)) x_0)))
 (let (($x96 (= ?x72 (_ bv3 6))))
 (and $x96 $x3027 $x3025 $x7868 $x3503 $x3011 $x3024 $x7883 (= (stack_s x_0 x_1 x_2 1 ?x3509) ?x7882) (= (stack_s x_0 x_1 x_2 1 ?x3525) ?x7892) $x2396 $x3055 $x2381 $x7896 $x3056 (= $x189 (or $x57 $x3066 $x3556)) (= ?x2414 (stack_s x_0 x_1 x_2 1 (bvadd (_ bv60 6) ?x154))) (= (stack_s x_0 x_1 x_2 2 (bvadd (_ bv60 6) ?x218)) ?x3043) (= ?x2456 ?x7885) $x7901 $x3071 $x3567 $x8897 $x3074 $x8900 (= (stack_t x_0 x_1 x_2 1 (bvadd (_ bv63 6) ?x4023)) ?x8904) (= (stack_t x_0 x_1 x_2 1 ?x8903) ?x8904) (= (stack_t x_0 x_1 x_2 1 ?x1878) ?x2362) (= (stack_t x_0 x_1 x_2 1 ?x3016) ?x3018) $x3009 $x3469 $x8917 $x2982 (= $x1920 (or $x56 $x3418 (not (bvsle (_ bv0 6) ?x8903)))) $x73 $x2164 $x58 $x2502 $x2505 (not (and $x8685 $x8925 $x8665 $x8806))))))))))))))))))))))))))))))))))))))))))))))))))))))))))))))))))))))))))))))
 )
(check-sat)
(get-proof)
